0,33,43,57,86,53,73,60,88,59,55
33,0,32,41,55,24,40,26,66,29,36
43,32,0,14,53,26,49,46,45,31,69
57,41,14,0,43,24,43,46,31,26,75
86,55,53,43,0,32,19,36,34,26,73
53,24,26,24,32,0,23,21,43,5,53
73,40,49,43,19,23,0,17,47,18,54
60,26,46,46,36,21,17,0,59,20,38
88,66,45,31,34,43,47,59,0,40,96
59,29,31,26,26,5,18,20,40,0,55
55,36,69,75,73,53,54,38,96,55,0